(set-logic QF_S)
(declare-fun var0 () String)
(assert (str.in.re var0 (re.++ (re.union (re.+ (str.to.re "00")) (re.+ (str.to.re "11"))) (re.++ (re.+ (re.union (str.to.re "22") (str.to.re "333"))) (re.++ (re.union (re.union (str.to.re "444") (str.to.re "555")) (re.union (str.to.re "66") (str.to.re "777"))) (re.++ (re.+ (re.* (str.to.re "8"))) (re.++ (re.union (re.* (str.to.re "999")) (re.* (str.to.re "aa"))) (re.++ (re.* (re.union (str.to.re "bb") (str.to.re "ccc"))) (re.++ (re.union (re.union (str.to.re "dd") (str.to.re "e")) (re.union (str.to.re "ff") (str.to.re "gg"))) (re.++ (re.union (re.union (str.to.re "h") (str.to.re "i")) (re.union (str.to.re "jj") (str.to.re "kk"))) (re.++ (re.+ (re.* (str.to.re "l"))) (re.++ (re.* (re.+ (str.to.re "m"))) (re.++ (re.union (re.union (str.to.re "n") (str.to.re "o")) (re.union (str.to.re "pp") (str.to.re "q"))) (re.++ (re.* (re.union (str.to.re "rrr") (str.to.re "sss"))) (re.++ (re.+ (re.+ (str.to.re "ttt"))) (re.++ (re.* (re.+ (str.to.re "uu"))) (re.++ (re.* (re.+ (str.to.re "vvv"))) (re.++ (re.* (re.union (str.to.re "ww") (str.to.re "xx"))) (re.++ (re.+ (re.+ (str.to.re "yyy"))) (re.++ (re.+ (re.* (str.to.re "zz"))) (re.++ (re.* (re.* (str.to.re "AAA"))) (re.++ (re.* (re.* (str.to.re "BBB"))) (re.++ (re.+ (re.+ (str.to.re "C"))) (re.++ (re.+ (re.* (str.to.re "DD"))) (re.++ (re.* (re.* (str.to.re "E"))) (re.++ (re.union (re.+ (str.to.re "FF")) (re.+ (str.to.re "G"))) (re.++ (re.union (re.+ (str.to.re "HHH")) (re.+ (str.to.re "I"))) (re.++ (re.union (re.union (str.to.re "JJ") (str.to.re "KKK")) (re.union (str.to.re "L") (str.to.re "MMM"))) (re.++ (re.+ (re.+ (str.to.re "NN"))) (re.++ (re.* (re.union (str.to.re "OO") (str.to.re "PPP"))) (re.+ (re.union (str.to.re "QQ") (str.to.re "RR")))))))))))))))))))))))))))))))))
(check-sat)